NAME: tsp50_3
COMMENT: 50-tsp problem (Padberg/Rinaldi)
TYPE: TSP
DIMENSION: 50
EDGE_WEIGHT_TYPE : EUC_2D
NODE_COORD_SECTION
1 14 27
2 10 29
3 15 13
4 8 21
5 7 6
6 25 5
7 1 24
8 32 32
9 2 4
10 39 14
11 37 31
12 1 11
13 19 19
14 23 9
15 6 6
16 35 32
17 2 28
18 16 22
19 30 4
20 15 2
21 12 1
22 2 7
23 20 10
24 16 16
25 11 22
26 3 23
27 38 7
28 23 13
29 22 7
30 3 19
31 21 8
32 4 24
33 11 26
34 1 15
35 15 13
36 8 6
37 31 16
38 9 5
39 35 30
40 7 34
41 17 32
42 28 14
43 35 6
44 2 36
45 3 3
46 19 8
47 6 19
48 37 8
49 22 1
50 33 32
